units real
atom_style full
region box block -10 10 -10 10 -10 10
create_box 2 box bond/types 1 angle/types 1 &
            extra/bond/per/atom 2 extra/angle/per/atom 1 extra/special/per/atom 2

mass 1 15.9994
mass 2 1.008
kspace_style pppm/tip4p 1.0e-4
pair_style lj/cut/tip4p/long 1 2 1 1 0.1577 8.5
pair_coeff 1 1 0.21084 3.1668
pair_coeff 2 2 0.0    1.0

bond_style zero
bond_coeff 1 0.9572

angle_style zero
angle_coeff 1 104.52

molecule water h2o.mol  # this uses the TIP3P geometry
create_atoms 0 random 270 34564 NULL mol water 25367 overlap 1.33
# must change charges for TIP4P
set type 1 charge -1.1794
set type 2 charge  0.5897

dump 101 all xyz 1000 tip4p.xyz
dump 1011 all xyz 1000 tip4p_vmd.xyz
dump_modify 1011 element  Ow Hw
fix rigid all shake 0.001 10 10000 b 1 a 1
minimize 0.0 0.0 1000 10000

#reset_timestep 0
timestep 1.0
velocity all create 300.0 5463576
fix integrate all npt temp 300 300 100.0 iso 0 0 1000
thermo_style custom step temp press etotal pe density

thermo 1000
run 2000000
unfix integrate
fix integrate all nvt temp 500 300 100.0
run 2000000
unfix integrate
fix integrate all npt temp 300 300 100.0 iso 1 1 1000
run 2000000
write_data tip4p-implicit.data nocoeff
